(set-logic QF_S)
(declare-fun var_0xINPUT_258858 () String)
(assert (and (= (len var_0xINPUT_258858) 0) (= (len var_0xINPUT_258858) 0) (not (= var_0xINPUT_258858 "o7E1eVAEe3"))))
(check-sat var_0xINPUT_258858)